Minimize
  - 3 y_0 - 9 y_1 - 6 y_3 - 3 y_4 - 8 y_5 - 4 y_6 - 11 y_7 - 5 y_8 - 10 y_9
   - 9 y_10 - 7 y_11 - 2 y_12 - 11 y_13 - 11 y_14 - 12 y_15 - 3 y_16
   - 12 y_17 - 3 y_18 - 7 y_19 + 136 Constant
Subject To
 c_0: y_0 = 1
 c_1_0: y_0 + y_2 + y_4 + y_12 + y_18 >= 1
 c_1_1: y_1 + y_9 + y_13 >= 1
 c_1_2: y_0 + y_2 + y_4 + y_12 + y_16 + y_18 >= 1
 c_1_3: y_3 + y_8 + y_12 + y_19 >= 1
 c_1_4: y_0 + y_2 + y_4 + y_12 + y_18 >= 1
 c_1_5: y_5 + y_8 + y_19 >= 1
 c_1_6: y_6 + y_11 >= 1
 c_1_7: y_7 >= 1
 c_1_8: y_3 + y_5 + y_8 + y_12 + y_16 + y_18 + y_19 >= 1
 c_1_9: y_1 + y_9 + y_13 >= 1
 c_1_10: y_10 + y_15 >= 1
 c_1_11: y_6 + y_11 >= 1
 c_1_12: y_0 + y_2 + y_3 + y_4 + y_8 + y_12 + y_16 + y_18 >= 1
 c_1_13: y_1 + y_9 + y_13 >= 1
 c_1_14: y_14 >= 1
 c_1_15: y_10 + y_15 >= 1
 c_1_16: y_2 + y_8 + y_12 + y_16 + y_18 >= 1
 c_1_17: y_17 >= 1
 c_1_18: y_0 + y_2 + y_4 + y_8 + y_12 + y_16 + y_18 >= 1
 c_1_19: y_3 + y_5 + y_8 + y_19 >= 1
Bounds
 Constant = 1
Binaries
 y_0 y_1 y_2 y_3 y_4 y_5 y_6 y_7 y_8 y_9 y_10 y_11 y_12 y_13 y_14 y_15 y_16
 y_17 y_18 y_19
End
